x = 15;
y = 17;
c = 60;
n = 47;

p = [72  94  92  90  57  77  81  11  80  32  99  70  55  57  21  44  63  70  94  24  91  95  13  84  87  48  81  32  10  28  41  84  31  60  36  80  17  89  21  61  81  26  39  89  91  60  15];
w = [6  4  4  4  1  9  1  3  2  6  10  10  7  2  4  7  1  7  4  5  10  8  5  7  6  5  2  6  7  9  5  6  3  5  7  2  3  9  7  7  9  10  9  8  5  6  1];
s = [1  11  14  3  10  8  7  4  7  13  9  2  6  4  14  15  14  1  14  11  7  8  11  6  15  4  7  6  11  14  14  6  10  1  2  8  8  14  11  15  12  14  11  3  5  12  10];
